Zn1 Cu2 Sn1 Se4
   1.00000000000000
    -2.8526234550741800    2.8526237704409789    5.6790062327344994
     2.8526234550741800   -2.8526237704409789    5.6790062327344994
     2.8526237704409789    2.8526234550741800   -5.6790062327344994
   Cu   Zn   Sn   Se
     2     1     1     4
Direct
  0.7500000000000000  0.2500000000000000  0.5000000000000000
  0.5000000000000000  0.5000000000000000  0.0000000000000000
  0.2500000000000000  0.7500000000000000  0.5000000000000000
  0.0000000000000000  0.0000000000000000  0.0000000000000000
  0.1271977956601305  0.6102922664802435  0.9948955078031858
  0.6153967586770506  0.1323022878569375  0.0051044921968142
  0.8676977121430625  0.8728022043398695  0.4830944708201272
  0.3897077335197565  0.3846032413229494  0.5169055291798728

  0.00000000E+00  0.00000000E+00  0.00000000E+00
  0.00000000E+00  0.00000000E+00  0.00000000E+00
  0.00000000E+00  0.00000000E+00  0.00000000E+00
  0.00000000E+00  0.00000000E+00  0.00000000E+00
  0.00000000E+00  0.00000000E+00  0.00000000E+00
  0.00000000E+00  0.00000000E+00  0.00000000E+00
  0.00000000E+00  0.00000000E+00  0.00000000E+00
  0.00000000E+00  0.00000000E+00  0.00000000E+00