Zn1 Cu2 Sn1 S4                          
   1.00000000000000     
    -2.7143326337168401    2.7143325599924042    5.3985248921318183
     2.7143326337168401   -2.7143325599924042    5.3985248921318183
     2.7143325599924042    2.7143326337168401   -5.3985248921318183
   Cu   Zn   Sn   S 
     2     1     1     4
Direct
  0.7500000000000000  0.2500000000000000  0.5000000000000000
  0.5000000000000000  0.5000000000000000  0.0000000000000000
  0.0000000000000000  0.0000000000000000  0.0000000000000000
  0.2500000000000000  0.7500000000000000  0.5000000000000000
  0.8630372557992558  0.8769455098696568  0.4959855244445279
  0.3809599854251502  0.3670517313547350  0.5040144755554721
  0.6329482686452650  0.1369627442007442  0.0139082540704081
  0.1230544901303432  0.6190400145748498  0.9860917459295919
 
  0.00000000E+00  0.00000000E+00  0.00000000E+00
  0.00000000E+00  0.00000000E+00  0.00000000E+00
  0.00000000E+00  0.00000000E+00  0.00000000E+00
  0.00000000E+00  0.00000000E+00  0.00000000E+00
  0.00000000E+00  0.00000000E+00  0.00000000E+00
  0.00000000E+00  0.00000000E+00  0.00000000E+00
  0.00000000E+00  0.00000000E+00  0.00000000E+00
  0.00000000E+00  0.00000000E+00  0.00000000E+00
