Sb Se                                   
   1.00000000000000     
     3.9525482735795467    0.0000000000000000    0.0000000000000000
     0.0000000000000000   11.5459130546423623    0.0000000000000000
     0.0000000000000000    0.0000000000000000   11.9281420537285445
   Sb   Se
     8    12
Selective dynamics
Direct
  0.7500000000000000  0.0372985101256802  0.1445375721818607   T   T   T
  0.2500000000000000  0.9627014898743198  0.8554624278181464   T   T   T
  0.2500000000000000  0.5372985101256802  0.3554624278181393   T   T   T
  0.7500000000000000  0.4627014898743127  0.6445375721818536   T   T   T
  0.2500000000000000  0.3277697667611363  0.0322755834593096   T   T   T
  0.7500000000000000  0.6722302332388708  0.9677244165406975   T   T   T
  0.7500000000000000  0.8277697667611292  0.4677244165406904   T   T   T
  0.2500000000000000  0.1722302332388637  0.5322755834593025   T   T   T
  0.2500000000000000  0.9448546943296918  0.3722588260490980   T   T   T
  0.7500000000000000  0.0551453056703082  0.6277411739509020   T   T   T
  0.2500000000000000  0.3077113629864314  0.7099820315865770   T   T   T
  0.7500000000000000  0.6922886370135757  0.2900179684134230   T   T   T
  0.7500000000000000  0.8077113629864243  0.7900179684134230   T   T   T
  0.2500000000000000  0.8721100471715886  0.0525770911250873   T   T   T
  0.7500000000000000  0.3721100471715886  0.4474229088749055   T   T   T
  0.2500000000000000  0.6278899528284114  0.5525770911250945   T   T   T
  0.2500000000000000  0.5551453056703082  0.8722588260490980   T   T   T
  0.7500000000000000  0.1278899528284114  0.9474229088749055   T   T   T
  0.2500000000000000  0.1922886370135686  0.2099820315865770   T   T   T
  0.7500000000000000  0.4448546943296918  0.1277411739509020   T   T   T
 
  0.00000000E+00  0.00000000E+00  0.00000000E+00
  0.00000000E+00  0.00000000E+00  0.00000000E+00
  0.00000000E+00  0.00000000E+00  0.00000000E+00
  0.00000000E+00  0.00000000E+00  0.00000000E+00
  0.00000000E+00  0.00000000E+00  0.00000000E+00
  0.00000000E+00  0.00000000E+00  0.00000000E+00
  0.00000000E+00  0.00000000E+00  0.00000000E+00
  0.00000000E+00  0.00000000E+00  0.00000000E+00
  0.00000000E+00  0.00000000E+00  0.00000000E+00
  0.00000000E+00  0.00000000E+00  0.00000000E+00
  0.00000000E+00  0.00000000E+00  0.00000000E+00
  0.00000000E+00  0.00000000E+00  0.00000000E+00
  0.00000000E+00  0.00000000E+00  0.00000000E+00
  0.00000000E+00  0.00000000E+00  0.00000000E+00
  0.00000000E+00  0.00000000E+00  0.00000000E+00
  0.00000000E+00  0.00000000E+00  0.00000000E+00
  0.00000000E+00  0.00000000E+00  0.00000000E+00
  0.00000000E+00  0.00000000E+00  0.00000000E+00
  0.00000000E+00  0.00000000E+00  0.00000000E+00
  0.00000000E+00  0.00000000E+00  0.00000000E+00
